* ; EXPECT: unsat
* ; COMMAND-LINE: 
* ; COMMAND-LINE: --solve-bv-as-int=sum
* (set-logic QF_BV)
* (declare-const v (_ BitVec 6))
* (assert (and (bvugt v (_ bv53 6)) (not (bvuaddo v v))))
* (check-sat)
* unsat
* #variable= 15 #constraint= 14
+1 x6 = 1;
+1 x5 = 1;
+1 x4 = 0;
+1 x3 = 1;
+1 x2 = 0;
+1 x1 = 1;
+1 x7 +2 x8 +4 x9 +8 x10 +16 x11 +32 x12 -1 x1 -2 x2 -4 x3 -8 x4 -16 x5 -32 x6 >= 1;
+1 x14 +1 x15 -1 x13 >= 0;
+1 x14 -1 x15 +1 x13 >= 0;
-1 x14 +1 x15 +1 x13 >= 0;
-1 x14 -1 x15 -1 x13 >= -2;
+1 x14 = 1;
+1 x12 -1 x15 = 0;
+1 x13 >= 1;
